peakDumbCharging = 22200; 
Machine = anon_enum(16); 
machineSpeed = [3700,3700,3700,3700,3700,3700,3700,3700,3700,3700,3700,3700,3700,3700,3700,3700]; 
machineLoad = [3700,3700,3700,3700,3700,3700,3700,3700,3700,3700,3700,3700,3700,3700,3700,3700]; 
Car = anon_enum(29); 
demandCar = [4600,5080,7280,4240,920,400,4200,3720,24320,13120,6720,4800,6560,2920,19880,8000,10240,12600,4280,5880,7600,17360,2600,17440,14480,10280,10560,25680,16520]; 
arrivalCar = [76,74,70,70,67,67,65,65,64,63,63,63,61,61,58,58,56,55,55,52,51,49,49,45,41,38,37,31,30]; 
departureCar = [79,77,73,72,69,68,68,67,73,71,68,67,65,63,68,62,62,60,58,56,57,55,50,52,48,42,44,42,36]; 
